\ENCODING=ISO-8859-1
\Problem name: BackPack Problem

Maximize
 obj: 8 x1 + 5 x2 + 12 x3
Subject To
 c1: 3 x1 + 2 x2 + 5 x3 <= 5
Bounds
      x1 >= 0
      x2 >= 0
      x3 >= 0
Generals
 x1  x2  x3 
End
